
  32    1
  10

   0   0   9 2 3 4 5 6 7 9 10 11 
   4   1   5 23 15 14 13 12 
   3   3   5 23 16 15 13 12 
   9   4   4 16 14 13 8 
   3   5   5 23 17 14 13 12 
   9   6   5 19 16 15 14 12 
   3   6   3 23 15 12 
  10   6   8 30 29 23 22 20 19 18 17 
   4   2   7 31 30 23 22 21 20 15 
   9   5   2 16 13 
   8   3   7 30 29 28 23 22 20 17 
   8   3   6 30 29 22 21 20 18 
   6   4   4 30 29 28 19 
   9   6   5 28 27 26 22 20 
   2   4   3 29 28 17 
   6   4   6 31 29 27 26 25 24 
   4   4   4 27 26 25 24 
   1   4   4 31 28 27 24 
   4   5   3 26 25 21 
   9   3   2 25 24 
   2   2   1 24 
   1   2   1 25 
   8   1   1 26 
   2   6   1 32
   4   2   1 32
  10   4   1 32
  10   3   1 32
   7   4   1 32
   3   6   1 32
   8   5   1 32
   9   7   1 32
   0   0   0 
